instances/pace2017_tw_bonus/post-cbmc-aes-d-r2.gaifman_10.gr
p tw 263 505
1 3
1 4
1 5
2 7
2 8
2 9
3 4
3 5
4 10
4 11
4 12
5 6
6 13
6 14
7 8
7 9
8 16
8 17
8 18
9 10
10 11
10 12
11 19
11 20
11 21
12 13
13 14
14 22
14 23
14 24
15 26
15 27
15 28
16 17
16 18
17 29
17 30
17 31
18 19
19 20
19 21
20 32
20 33
20 34
21 22
22 23
22 24
23 35
23 36
23 37
24 25
25 38
25 39
26 27
26 28
27 41
27 42
27 43
28 29
29 30
29 31
30 44
30 45
30 46
31 32
32 33
32 34
33 47
33 48
33 49
34 35
35 36
35 37
36 50
36 51
36 52
37 38
38 39
39 53
39 54
39 55
40 57
40 58
40 59
41 42
41 43
42 60
42 61
42 62
43 44
44 45
44 46
45 63
45 64
45 65
46 47
47 48
47 49
48 66
48 67
48 68
49 50
50 51
50 52
51 69
51 70
51 71
52 53
53 54
53 55
54 72
54 73
54 74
55 56
56 75
56 76
57 58
57 59
58 78
58 79
58 80
59 60
60 61
60 62
61 81
61 82
61 83
62 63
63 64
63 65
64 84
64 85
64 86
65 66
66 67
66 68
67 87
67 88
67 89
68 69
69 70
69 71
70 90
70 91
70 92
71 72
72 73
72 74
73 93
73 94
73 95
74 75
75 76
76 96
76 97
76 98
77 100
77 101
77 102
78 79
78 80
79 103
79 104
79 105
80 81
81 82
81 83
82 106
82 107
82 108
83 84
84 85
84 86
85 109
85 110
85 111
86 87
87 88
87 89
88 112
88 113
88 114
89 90
90 91
90 92
91 115
91 116
91 117
92 93
93 94
93 95
94 118
94 119
94 120
95 96
96 97
96 98
97 121
97 122
97 123
98 99
99 124
99 125
100 101
100 102
101 126
101 127
101 128
102 103
103 104
103 105
104 129
104 130
104 131
105 106
106 107
106 108
107 132
107 133
107 134
108 109
109 110
109 111
110 135
110 136
110 137
111 112
112 113
112 114
113 138
113 139
113 140
114 115
115 116
115 117
116 141
116 142
116 143
117 118
118 119
118 120
119 144
119 145
119 146
120 121
121 122
121 123
122 147
122 148
122 149
123 124
124 125
125 150
125 151
125 152
126 127
126 128
127 153
128 129
129 130
129 131
130 153
130 154
130 155
131 132
132 133
132 134
133 156
133 157
133 158
134 135
135 136
135 137
136 159
136 160
136 161
137 138
138 139
138 140
139 162
139 163
139 164
140 141
141 142
141 143
142 165
142 166
142 167
143 144
144 145
144 146
145 168
145 169
145 170
146 147
147 148
147 149
148 171
148 172
148 173
149 150
150 151
150 152
151 174
151 175
151 176
152 176
153 154
153 155
154 177
154 178
154 179
155 156
156 157
156 158
157 180
157 181
157 182
158 159
159 160
159 161
160 183
160 184
160 185
161 162
162 163
162 164
163 186
163 187
163 188
164 165
165 166
165 167
166 189
166 190
166 191
167 168
168 169
168 170
169 192
169 193
169 194
170 171
171 172
171 173
172 195
172 196
172 197
173 174
174 175
174 176
175 198
175 199
177 178
177 179
178 200
179 180
180 181
180 182
181 200
181 201
181 202
182 183
183 184
183 185
184 203
184 204
184 205
185 186
186 187
186 188
187 206
187 207
187 208
188 189
189 190
189 191
190 209
190 210
190 211
191 192
192 193
192 194
193 212
193 213
193 214
194 195
195 196
195 197
196 215
196 216
196 217
197 198
198 199
199 217
200 201
200 202
201 218
201 219
201 220
202 203
203 204
203 205
204 221
204 222
204 223
205 206
206 207
206 208
207 224
207 225
207 226
208 209
209 210
209 211
210 227
210 228
210 229
211 212
212 213
212 214
213 230
213 231
213 232
214 215
215 216
215 217
216 233
216 234
218 219
218 220
219 235
220 221
221 222
221 223
222 235
222 236
222 237
223 224
224 225
224 226
225 238
225 239
225 240
226 227
227 228
227 229
228 241
228 242
228 243
229 230
230 231
230 232
231 244
231 245
231 246
232 233
233 234
234 246
235 236
235 237
236 247
236 248
236 249
237 238
238 239
238 240
239 250
239 251
239 252
240 241
241 242
241 243
242 253
242 254
242 255
243 244
244 245
244 246
245 256
245 257
247 248
247 249
248 258
249 250
250 251
250 252
251 258
251 259
251 260
252 253
253 254
253 255
254 261
254 262
254 263
255 256
256 257
257 263
258 259
258 260
259 262
260 261
261 262
261 263
